(set-logic ALL)
(declare-const n_VAR Int)
(assert (not (<= n_VAR 0)))
(assert (<= 4 n_VAR))
(assert (not (= (mod n_VAR 2) 0)))
(assert (not (<= 9 n_VAR)))
(assert (not (> n_VAR 1)))
(check-sat)
(get-value (n_VAR))
